# Objective value = 3.0759209275080923e+02
x[0] 1
x[1] 0
x[2] 0
x[3] 0
x[4] 1
x[5] 0
x[6] 1
x[7] 1
x[8] 0
x[9] 0
x[10] 1
x[11] 0
x[12] 0
x[13] 0
x[14] 0
x[15] 0
x[16] 1
x[17] 0
x[18] 0
x[19] 0
x[20] 0
x[21] 1
x[22] 1
x[23] 0
x[24] 1
x[25] 1
x[26] 1
x[27] 1
x[28] 0
x[29] 0
x[30] 1
x[31] 0
x[32] 1
x[33] 1
x[34] 0
x[35] 0
x[36] 1
x[37] 0
x[38] 1
x[39] 0
x[40] 1
x[41] 0
x[42] 0
x[43] 0
x[44] 0
x[45] 1
x[46] 1
x[47] 0
x[48] 0
x[49] 1
x[50] 1
x[51] 0
x[52] 0
x[53] 1
x[54] 1
x[55] 0
x[56] 0
x[57] 0
x[58] 1
x[59] 0
x[60] 0
x[61] 0
x[62] 1
x[63] 1
x[64] 1
x[65] 1
x[66] 1
x[67] 1
x[68] 1
x[69] 1
x[70] 1
x[71] 1
x[72] 1
x[73] 0
x[74] 0
x[75] 0
x[76] 1
x[77] 0
x[78] 1
x[79] 1
x[80] 1
x[81] 1
x[82] 1
x[83] 0
x[84] 1
x[85] 0
x[86] 0
x[87] 1
x[88] 1
x[89] 0
x[90] 0
x[91] 0
x[92] 0
x[93] 1
x[94] 1
x[95] 1
x[96] 1
x[97] 0
x[98] 0
x[99] 1
x[100] 0
x[101] 1
x[102] 0
x[103] 0
x[104] 0
x[105] 1
x[106] 1
x[107] 1
x[108] 0
x[109] 1
x[110] 0
x[111] 1
x[112] 1
x[113] 0
x[114] 0
x[115] 0
x[116] 1
x[117] 1
x[118] 0
x[119] 0
x[120] 1
x[121] 1
x[122] 1
x[123] 0
x[124] 0
x[125] 1
x[126] 1
x[127] 0
x[128] 1
x[129] 0
x[130] 0
x[131] 1
x[132] 0
x[133] 1
x[134] 1
x[135] 1
x[136] 0
x[137] 0
x[138] 1
x[139] 1
x[140] 0
x[141] 0
x[142] 0
x[143] 1
x[144] 1
x[145] 0
x[146] 1
x[147] 0
x[148] 1
x[149] 0
x[150] 0
x[151] 1
x[152] 1
x[153] 1
x[154] 1
x[155] 1
x[156] 0
x[157] 0
x[158] 1
x[159] 1
x[160] 1
x[161] 1
x[162] 0
x[163] 0
x[164] 1
x[165] 0
x[166] 1
x[167] 0
x[168] 0
x[169] 1
x[170] 0
x[171] 0
x[172] 1
x[173] 1
x[174] 1
x[175] 1
x[176] 0
x[177] 1
x[178] 1
x[179] 1
x[180] 0
x[181] 1
x[182] 0
x[183] 0
x[184] 1
x[185] 0
x[186] 0
x[187] 1
x[188] 0
x[189] 0
x[190] 0
x[191] 0
x[192] 1
x[193] 1
x[194] 0
x[195] 1
x[196] 1
x[197] 1
x[198] 1
x[199] 1
x[200] 1
x[201] 1
x[202] 0
x[203] 0
x[204] 0
x[205] 1
x[206] 0
x[207] 0
x[208] 0
x[209] 1
x[210] 0
x[211] 0
x[212] 1
x[213] 1
x[214] 1
x[215] 0
x[216] 1
x[217] 0
x[218] 1
x[219] 1
x[220] 0
x[221] 0
x[222] 1
x[223] 0
x[224] 0
x[225] 0
x[226] 0
x[227] 0
x[228] 1
x[229] 0
x[230] 1
x[231] 0
x[232] 0
x[233] 0
x[234] 1
x[235] 1
x[236] 1
x[237] 1
x[238] 1
x[239] 0
x[240] 0
x[241] 0
x[242] 1
x[243] 0
x[244] 1
x[245] 0
x[246] 1
x[247] 1
x[248] 0
x[249] 0
x[250] 1
x[251] 0
x[252] 1
x[253] 1
x[254] 1
x[255] 1
x[256] 1
x[257] 0
x[258] 0
x[259] 0
x[260] 1
x[261] 1
x[262] 0
x[263] 1
x[264] 0
x[265] 0
x[266] 1
x[267] 0
x[268] 1
x[269] 0
x[270] 1
x[271] 0
x[272] 1
x[273] 0
x[274] 0
x[275] 0
x[276] 1
x[277] 0
x[278] 0
x[279] 1
x[280] 1
x[281] 0
x[282] 1
x[283] 0
x[284] 1
x[285] 1
x[286] 0
x[287] 1
x[288] 0
x[289] 1
x[290] 0
x[291] 1
x[292] 0
x[293] 1
x[294] 0
x[295] 1
x[296] 1
x[297] 0
x[298] 1
x[299] 0
x[300] 0
x[301] 1
x[302] 1
x[303] 1
x[304] 0
x[305] 1
x[306] 1
x[307] 0
x[308] 0
x[309] 1
x[310] 0
x[311] 0
x[312] 0
x[313] 1
x[314] 1
x[315] 1
x[316] 1
x[317] 1
x[318] 0
x[319] 0
x[320] 0
x[321] 0
x[322] 0
x[323] 0
x[324] 1
x[325] 1
x[326] 0
x[327] 0
x[328] 0
x[329] 1
x[330] 0
x[331] 1
x[332] 1
x[333] 0
x[334] 0
x[335] 0
x[336] 0
x[337] 0
x[338] 1
x[339] 1
x[340] 1
x[341] 1
x[342] 0
x[343] 0
x[344] 1
x[345] 0
x[346] 0
x[347] 1
x[348] 1
x[349] 0
x[350] 0
x[351] 0
x[352] 1
x[353] 1
x[354] 0
x[355] 1
x[356] 0
x[357] 1
x[358] 1
x[359] 1
x[360] 0
x[361] 0
x[362] 0
x[363] 0
x[364] 1
x[365] 1
x[366] 1
x[367] 0
x[368] 1
x[369] 0
x[370] 1
x[371] 1
x[372] 0
x[373] 0
x[374] 0
x[375] 1
x[376] 0
x[377] 0
x[378] 1
x[379] 0
x[380] 0
x[381] 0
x[382] 1
x[383] 1
x[384] 1
x[385] 0
x[386] 0
x[387] 0
x[388] 1
x[389] 0
x[390] 1
x[391] 1
x[392] 0
x[393] 0
x[394] 1
x[395] 1
x[396] 1
x[397] 0
x[398] 1
x[399] 1
x[400] 0
x[401] 1
x[402] 0
x[403] 1
x[404] 0
x[405] 1
x[406] 0
x[407] 1
x[408] 1
x[409] 0
x[410] 0
x[411] 1
x[412] 1
x[413] 1
x[414] 0
x[415] 1
x[416] 0
x[417] 1
x[418] 0
x[419] 1
x[420] 1
x[421] 0
x[422] 1
x[423] 0
x[424] 0
x[425] 1
x[426] 0
x[427] 1
x[428] 1
x[429] 0
x[430] 1
x[431] 0
x[432] 1
x[433] 1
x[434] 1
x[435] 1
x[436] 1
x[437] 0
x[438] 1
x[439] 1
x[440] 1
x[441] 1
x[442] 0
x[443] 0
x[444] 1
x[445] 1
x[446] 0
x[447] 1
x[448] 0
x[449] 1
x[450] 0
x[451] 1
x[452] 1
x[453] 1
x[454] 0
x[455] 1
x[456] 1
x[457] 1
x[458] 1
x[459] 1
x[460] 0
x[461] 0
x[462] 0
x[463] 0
x[464] 1
x[465] 1
x[466] 0
x[467] 1
x[468] 0
x[469] 1
x[470] 1
x[471] 1
x[472] 1
x[473] 0
x[474] 1
x[475] 0
x[476] 0
x[477] 1
x[478] 0
x[479] 1
x[480] 0
x[481] 1
x[482] 1
x[483] 0
x[484] 1
x[485] 1
x[486] 1
x[487] 0
x[488] 1
x[489] 0
x[490] 1
x[491] 0
x[492] 1
x[493] 0
x[494] 1
x[495] 1
x[496] 1
x[497] 0
x[498] 1
x[499] 1
x[500] 1
x[501] 1
x[502] 0
x[503] 1
x[504] 0
x[505] 0
x[506] 1
x[507] 0
x[508] 0
x[509] 0
x[510] 0
x[511] 0
x[512] 1
x[513] 0
x[514] 0
x[515] 1
x[516] 1
x[517] 0
x[518] 1
x[519] 1
x[520] 1
x[521] 0
x[522] 1
x[523] 1
x[524] 0
x[525] 0
x[526] 1
x[527] 1
x[528] 0
x[529] 0
x[530] 0
x[531] 1
x[532] 0
x[533] 0
x[534] 1
x[535] 0
x[536] 1
x[537] 1
x[538] 0
x[539] 1
x[540] 1
x[541] 1
x[542] 1
x[543] 1
x[544] 1
x[545] 1
x[546] 1
x[547] 0
x[548] 0
x[549] 0
x[550] 1
x[551] 0
x[552] 1
x[553] 1
x[554] 1
x[555] 1
x[556] 0
x[557] 0
x[558] 1
x[559] 1
x[560] 0
x[561] 1
x[562] 1
x[563] 0
x[564] 1
x[565] 0
x[566] 1
x[567] 1
x[568] 0
x[569] 0
x[570] 0
x[571] 1
x[572] 1
x[573] 0
x[574] 1
x[575] 1
x[576] 0
x[577] 1
x[578] 0
x[579] 0
x[580] 0
x[581] 0
x[582] 0
x[583] 1
x[584] 0
x[585] 1
x[586] 1
x[587] 1
x[588] 1
x[589] 1
x[590] 1
x[591] 1
x[592] 0
x[593] 1
x[594] 0
x[595] 0
x[596] 0
x[597] 1
x[598] 1
x[599] 1
x[600] 0
x[601] 0
x[602] 0
x[603] 0
x[604] 0
x[605] 0
x[606] 1
x[607] 0
x[608] 0
x[609] 0
x[610] 1
x[611] 0
x[612] 0
x[613] 0
x[614] 0
x[615] 1
x[616] 1
x[617] 0
x[618] 0
x[619] 1
x[620] 1
x[621] 0
x[622] 1
x[623] 0
x[624] 0
x[625] 1
x[626] 0
x[627] 0
x[628] 0
x[629] 1
x[630] 1
x[631] 0
x[632] 1
x[633] 1
x[634] 0
x[635] 1
x[636] 0
x[637] 0
x[638] 1
x[639] 0
x[640] 1
x[641] 0
x[642] 1
x[643] 1
x[644] 0
x[645] 1
x[646] 1
x[647] 0
x[648] 0
x[649] 0
x[650] 0
x[651] 0
x[652] 1
x[653] 0
x[654] 0
x[655] 0
x[656] 0
x[657] 1
x[658] 1
x[659] 1
x[660] 1
x[661] 0
x[662] 0
x[663] 0
x[664] 1
x[665] 0
x[666] 1
x[667] 1
x[668] 1
x[669] 0
x[670] 1
x[671] 0
x[672] 0
x[673] 1
x[674] 0
x[675] 0
x[676] 0
x[677] 1
x[678] 1
x[679] 0
x[680] 0
x[681] 0
x[682] 0
x[683] 0
x[684] 0
x[685] 1
x[686] 1
x[687] 1
x[688] 0
x[689] 0
x[690] 0
x[691] 0
x[692] 0
x[693] 1
x[694] 0
x[695] 0
x[696] 0
x[697] 0
x[698] 1
x[699] 1
x[700] 0
x[701] 0
x[702] 0
x[703] 0
x[704] 0
x[705] 1
x[706] 1
x[707] 1
x[708] 1
x[709] 0
x[710] 0
x[711] 0
x[712] 0
x[713] 1
x[714] 0
x[715] 1
x[716] 1
x[717] 0
x[718] 1
x[719] 0
x[720] 0
x[721] 0
x[722] 0
x[723] 1
x[724] 1
x[725] 1
x[726] 1
x[727] 1
x[728] 1
x[729] 0
x[730] 0
x[731] 0
x[732] 1
x[733] 1
x[734] 0
x[735] 0
x[736] 1
x[737] 1
x[738] 0
x[739] 1
x[740] 0
x[741] 0
x[742] 0
x[743] 1
x[744] 0
x[745] 1
x[746] 0
x[747] 1
x[748] 1
x[749] 0
x[750] 1
x[751] 0
x[752] 1
x[753] 0
x[754] 0
x[755] 1
x[756] 0
x[757] 1
x[758] 0
x[759] 0
x[760] 0
x[761] 0
x[762] 1
x[763] 1
x[764] 0
x[765] 1
x[766] 0
x[767] 1
x[768] 1
x[769] 0
x[770] 0
x[771] 1
x[772] 0
x[773] 0
x[774] 1
x[775] 0
x[776] 0
x[777] 0
x[778] 0
x[779] 0
x[780] 0
x[781] 0
x[782] 1
x[783] 1
x[784] 0
x[785] 0
x[786] 0
x[787] 0
x[788] 0
x[789] 1
x[790] 0
x[791] 1
x[792] 0
x[793] 0
x[794] 1
x[795] 1
x[796] 0
x[797] 0
x[798] 0
x[799] 1
x[800] 1
x[801] 0
x[802] 0
x[803] 0
x[804] 0
x[805] 0
x[806] 1
x[807] 0
x[808] 1
x[809] 0
x[810] 0
x[811] 0
x[812] 0
x[813] 1
x[814] 1
x[815] 1
x[816] 1
x[817] 0
x[818] 1
x[819] 0
x[820] 0
x[821] 0
x[822] 0
x[823] 1
x[824] 1
x[825] 0
x[826] 1
x[827] 0
x[828] 1
x[829] 0
x[830] 0
x[831] 1
x[832] 0
x[833] 1
x[834] 0
x[835] 1
x[836] 1
x[837] 1
x[838] 1
x[839] 0
x[840] 1
x[841] 1
x[842] 1
x[843] 1
x[844] 1
x[845] 1
x[846] 0
x[847] 1
x[848] 1
x[849] 0
x[850] 0
x[851] 0
x[852] 1
x[853] 1
x[854] 1
x[855] 1
x[856] 0
x[857] 1
x[858] 0
x[859] 1
x[860] 0
x[861] 1
x[862] 1
x[863] 1
x[864] 1
x[865] 0
x[866] 0
x[867] 0
x[868] 1
x[869] 0
x[870] 0
x[871] 1
x[872] 0
x[873] 1
x[874] 1
x[875] 1
x[876] 0
x[877] 1
x[878] 1
x[879] 1
x[880] 1
x[881] 1
x[882] 0
x[883] 0
x[884] 0
x[885] 0
x[886] 1
x[887] 0
x[888] 1
x[889] 0
x[890] 0
x[891] 0
x[892] 0
x[893] 0
x[894] 1
x[895] 0
x[896] 0
x[897] 0
x[898] 0
x[899] 0
x[900] 1
x[901] 1
x[902] 1
x[903] 1
x[904] 1
x[905] 1
x[906] 1
x[907] 0
x[908] 1
x[909] 0
x[910] 0
x[911] 1
x[912] 0
x[913] 1
x[914] 0
x[915] 1
x[916] 1
x[917] 1
x[918] 0
x[919] 1
x[920] 0
x[921] 0
x[922] 1
x[923] 1
x[924] 1
x[925] 0
x[926] 0
x[927] 0
x[928] 1
x[929] 0
x[930] 0
x[931] 1
x[932] 0
x[933] 1
x[934] 0
x[935] 0
x[936] 1
x[937] 0
x[938] 0
x[939] 0
x[940] 0
x[941] 0
x[942] 0
x[943] 1
x[944] 0
x[945] 1
x[946] 0
x[947] 0
x[948] 0
x[949] 0
x[950] 0
x[951] 0
x[952] 0
x[953] 0
x[954] 0
x[955] 0
x[956] 0
x[957] 0
x[958] 1
x[959] 1
x[960] 0
x[961] 0
x[962] 1
x[963] 1
x[964] 0
x[965] 0
x[966] 1
x[967] 0
x[968] 1
x[969] 0
x[970] 1
x[971] 1
x[972] 1
x[973] 0
x[974] 0
x[975] 0
x[976] 1
x[977] 0
x[978] 1
x[979] 0
x[980] 1
x[981] 1
x[982] 1
x[983] 0
x[984] 1
x[985] 0
x[986] 1
x[987] 0
x[988] 0
x[989] 0
x[990] 0
x[991] 0
x[992] 0
x[993] 1
x[994] 0
x[995] 1
x[996] 1
x[997] 1
x[998] 1
x[999] 0
